
Gurobi 10.0.3 (linux64, gurobi_cl) logging started Thu Nov  2 12:01:57 2023

Set parameter Username
Set parameter TimeLimit to value 3600
Set parameter LogFile to value "RCPSP_990.log"
Set parameter Threads to value 32
Academic license - for non-commercial use only - expires 2024-10-30
Using license file /home/jrivera6/gurobi-licenses/v1003/compute-0-34/gurobi.lic

Gurobi Optimizer version 10.0.3 build v10.0.3rc0 (linux64)
Copyright (c) 2023, Gurobi Optimization, LLC

Read MPS format model from file RCPSP_990.mps
Reading time = 0.05 seconds
RCPSP_990: 42919 rows, 17020 columns, 134553 nonzeros

CPU model: Intel(R) Xeon(R) Gold 6130 CPU @ 2.10GHz, instruction set [SSE2|AVX|AVX2|AVX512]
Thread count: 32 physical cores, 32 logical processors, using up to 32 threads

Optimize a model with 42919 rows, 17020 columns and 134553 nonzeros
Model fingerprint: 0x3b059e38
Variable types: 92 continuous, 16928 integer (16928 binary)
Coefficient statistics:
  Matrix range     [1e+00, 5e+02]
  Objective range  [1e+00, 1e+00]
  Bounds range     [1e+00, 1e+00]
  RHS range        [1e+00, 5e+02]
Presolve removed 8035 rows and 1822 columns
Presolve time: 3.00s
Presolved: 34884 rows, 15198 columns, 113862 nonzeros
Variable types: 91 continuous, 15107 integer (15107 binary)

Deterministic concurrent LP optimizer: primal and dual simplex (primal and dual model)
Showing first log only...

Root relaxation presolved: 34884 rows, 15198 columns, 113862 nonzeros

Concurrent spin time: 0.49s

Solved with primal simplex (primal model)

Root relaxation: objective 6.500000e+01, 2839 iterations, 1.27 seconds (0.14 work units)
Total elapsed time = 5.93s

    Nodes    |    Current Node    |     Objective Bounds      |     Work
 Expl Unexpl |  Obj  Depth IntInf | Incumbent    BestBd   Gap | It/Node Time

     0     0   65.00000    0    2          -   65.00000      -     -    8s
H    0     0                      65.0000000   65.00000  0.00%     -   13s

Cutting planes:
  Gomory: 1
  Cover: 1
  Implied bound: 1
  MIR: 1
  StrongCG: 1
  Mod-K: 2
  RLT: 1
  Relax-and-lift: 1

Explored 1 nodes (7449 simplex iterations) in 13.39 seconds (3.39 work units)
Thread count was 32 (of 32 available processors)

Solution count 1: 65 

Optimal solution found (tolerance 1.00e-04)
Best objective 6.500000000000e+01, best bound 6.500000000000e+01, gap 0.0000%

Wrote result file 'RCPSP_990.sol'

